param n := 120;
param c := 3000
param : V : p w :=
   0	 468	 458
   1	 262	 252
   2	 300	 290
   3	 507	 497
   4	 260	 250
   5	 263	 253
   6	 456	 446
   7	 286	 276
   8	 288	 278
   9	 397	 387
  10	 284	 274
  11	 349	 339
  12	 472	 462
  13	 278	 268
  14	 280	 270
  15	 482	 472
  16	 268	 258
  17	 280	 270
  18	 387	 377
  19	 286	 276
  20	 357	 347
  21	 494	 484
  22	 263	 253
  23	 273	 263
  24	 500	 490
  25	 262	 252
  26	 268	 258
  27	 424	 414
  28	 260	 250
  29	 346	 336
  30	 503	 493
  31	 263	 253
  32	 264	 254
  33	 480	 470
  34	 267	 257
  35	 283	 273
  36	 413	 403
  37	 272	 262
  38	 345	 335
  39	 443	 433
  40	 283	 273
  41	 304	 294
  42	 385	 375
  43	 286	 276
  44	 359	 349
  45	 432	 422
  46	 286	 276
  47	 312	 302
  48	 456	 446
  49	 284	 274
  50	 290	 280
  51	 362	 352
  52	 328	 318
  53	 340	 330
  54	 412	 402
  55	 279	 269
  56	 339	 329
  57	 446	 436
  58	 264	 254
  59	 320	 310
  60	 367	 357
  61	 278	 268
  62	 385	 375
  63	 420	 410
  64	 272	 262
  65	 338	 328
  66	 362	 352
  67	 285	 275
  68	 383	 373
  69	 433	 423
  70	 272	 262
  71	 325	 315
  72	 436	 426
  73	 276	 266
  74	 318	 308
  75	 398	 388
  76	 261	 251
  77	 371	 361
  78	 396	 386
  79	 282	 272
  80	 352	 342
  81	 384	 374
  82	 264	 254
  83	 382	 372
  84	 418	 408
  85	 297	 287
  86	 315	 305
  87	 452	 442
  88	 262	 252
  89	 316	 306
  90	 374	 364
  91	 312	 302
  92	 344	 334
  93	 373	 363
  94	 275	 265
  95	 382	 372
  96	 406	 396
  97	 302	 292
  98	 322	 312
  99	 495	 485
 100	 265	 255
 101	 270	 260
 102	 446	 436
 103	 266	 256
 104	 318	 308
 105	 455	 445
 106	 280	 270
 107	 295	 285
 108	 429	 419
 109	 285	 275
 110	 316	 306
 111	 437	 427
 112	 260	 250
 113	 333	 323
 114	 500	 490
 115	 262	 252
 116	 268	 258
 117	 506	 496
 118	 260	 250
 119	 264	 254
;

set E :=
   0	   3
   0	   4
   0	  14
   0	  19
   0	  25
   0	  30
   0	  34
   0	  37
   0	  38
   0	  40
   0	  43
   0	  44
   0	  48
   0	  53
   0	  55
   0	  59
   0	  62
   0	  63
   0	  72
   0	  74
   0	  77
   0	  80
   0	  83
   0	  92
   0	  95
   0	  97
   0	  99
   0	 100
   0	 109
   0	 115
   0	 117
   0	 118
   1	   2
   1	   5
   1	   8
   1	  11
   1	  14
   1	  18
   1	  21
   1	  22
   1	  23
   1	  24
   1	  25
   1	  28
   1	  30
   1	  32
   1	  35
   1	  46
   1	  51
   1	  58
   1	  60
   1	  65
   1	  66
   1	  67
   1	  73
   1	  75
   1	  76
   1	  77
   1	  78
   1	  80
   1	  82
   1	  95
   1	  98
   1	  99
   1	 101
   1	 104
   1	 107
   1	 114
   1	 115
   2	   5
   2	  10
   2	  16
   2	  19
   2	  22
   2	  25
   2	  26
   2	  32
   2	  34
   2	  37
   2	  48
   2	  50
   2	  52
   2	  56
   2	  63
   2	  67
   2	  68
   2	  70
   2	  72
   2	  73
   2	  75
   2	  77
   2	  79
   2	  82
   2	  85
   2	  90
   2	  91
   2	  93
   2	  95
   2	  99
   2	 106
   2	 109
   2	 110
   2	 113
   2	 115
   3	  13
   3	  20
   3	  27
   3	  30
   3	  35
   3	  36
   3	  38
   3	  39
   3	  40
   3	  41
   3	  44
   3	  45
   3	  49
   3	  51
   3	  52
   3	  53
   3	  54
   3	  58
   3	  62
   3	  67
   3	  68
   3	  69
   3	  74
   3	  80
   3	  82
   3	  86
   3	  87
   3	  88
   3	  93
   3	  99
   3	 105
   3	 106
   3	 108
   3	 111
   3	 115
   3	 116
   3	 118
   3	 119
   4	   9
   4	  10
   4	  15
   4	  18
   4	  20
   4	  23
   4	  26
   4	  28
   4	  30
   4	  32
   4	  34
   4	  37
   4	  43
   4	  45
   4	  55
   4	  59
   4	  62
   4	  75
   4	  77
   4	  78
   4	  79
   4	  82
   4	  84
   4	  88
   4	  89
   4	  91
   4	  93
   4	  98
   4	  99
   4	 100
   4	 102
   4	 108
   4	 112
   4	 113
   4	 118
   5	   6
   5	  10
   5	  14
   5	  15
   5	  17
   5	  18
   5	  19
   5	  26
   5	  31
   5	  32
   5	  35
   5	  37
   5	  41
   5	  44
   5	  51
   5	  57
   5	  64
   5	  65
   5	  81
   5	  83
   5	  85
   5	  86
   5	  90
   5	  91
   5	  96
   5	  98
   5	 100
   5	 101
   5	 104
   5	 105
   5	 107
   5	 109
   5	 110
   5	 116
   5	 118
   5	 119
   6	  10
   6	  17
   6	  21
   6	  23
   6	  27
   6	  28
   6	  33
   6	  37
   6	  39
   6	  40
   6	  41
   6	  43
   6	  46
   6	  49
   6	  52
   6	  57
   6	  59
   6	  61
   6	  70
   6	  72
   6	  74
   6	  77
   6	  81
   6	  82
   6	  89
   6	  94
   6	  96
   6	  98
   6	  99
   6	 100
   6	 101
   6	 103
   6	 109
   6	 111
   6	 118
   7	  13
   7	  23
   7	  29
   7	  35
   7	  40
   7	  46
   7	  48
   7	  49
   7	  50
   7	  53
   7	  54
   7	  58
   7	  59
   7	  61
   7	  65
   7	  66
   7	  68
   7	  70
   7	  73
   7	  75
   7	  76
   7	  78
   7	  80
   7	  81
   7	  88
   7	  89
   7	  91
   7	  94
   7	  99
   7	 101
   7	 102
   7	 103
   7	 104
   7	 106
   7	 109
   7	 110
   7	 116
   7	 118
   7	 119
   8	   9
   8	  16
   8	  23
   8	  32
   8	  33
   8	  34
   8	  35
   8	  37
   8	  39
   8	  40
   8	  41
   8	  42
   8	  46
   8	  55
   8	  56
   8	  57
   8	  60
   8	  63
   8	  67
   8	  68
   8	  70
   8	  74
   8	  78
   8	  83
   8	  90
   8	  91
   8	  96
   8	 109
   8	 111
   8	 117
   9	  10
   9	  23
   9	  24
   9	  25
   9	  30
   9	  31
   9	  35
   9	  37
   9	  40
   9	  43
   9	  49
   9	  50
   9	  52
   9	  55
   9	  57
   9	  60
   9	  73
   9	  74
   9	  76
   9	  78
   9	  90
   9	  92
   9	  96
   9	 102
   9	 108
   9	 114
   9	 116
   9	 117
  10	  13
  10	  15
  10	  20
  10	  22
  10	  26
  10	  30
  10	  33
  10	  34
  10	  38
  10	  40
  10	  41
  10	  47
  10	  51
  10	  52
  10	  54
  10	  60
  10	  70
  10	  75
  10	  81
  10	  86
  10	  88
  10	  92
  10	 101
  10	 102
  10	 104
  10	 107
  10	 108
  10	 109
  10	 114
  10	 118
  10	 119
  11	  13
  11	  14
  11	  16
  11	  18
  11	  20
  11	  24
  11	  31
  11	  34
  11	  37
  11	  40
  11	  42
  11	  48
  11	  51
  11	  53
  11	  57
  11	  59
  11	  62
  11	  63
  11	  66
  11	  67
  11	  70
  11	  75
  11	  83
  11	  87
  11	 105
  11	 108
  11	 110
  11	 113
  11	 114
  11	 115
  11	 119
  12	  19
  12	  20
  12	  22
  12	  28
  12	  29
  12	  32
  12	  36
  12	  39
  12	  42
  12	  43
  12	  45
  12	  50
  12	  55
  12	  62
  12	  64
  12	  67
  12	  70
  12	  71
  12	  72
  12	  83
  12	  87
  12	  88
  12	  90
  12	  95
  12	  96
  12	  98
  12	 102
  12	 105
  12	 107
  12	 108
  12	 110
  12	 112
  12	 115
  12	 116
  12	 117
  12	 118
  13	  21
  13	  24
  13	  27
  13	  28
  13	  29
  13	  30
  13	  32
  13	  37
  13	  40
  13	  41
  13	  46
  13	  57
  13	  60
  13	  61
  13	  62
  13	  64
  13	  71
  13	  78
  13	  79
  13	  80
  13	  86
  13	  88
  13	  89
  13	  91
  13	  92
  13	  97
  13	 102
  13	 103
  13	 107
  13	 111
  13	 118
  14	  17
  14	  18
  14	  24
  14	  25
  14	  26
  14	  28
  14	  32
  14	  36
  14	  37
  14	  38
  14	  41
  14	  43
  14	  45
  14	  47
  14	  50
  14	  58
  14	  61
  14	  62
  14	  63
  14	  68
  14	  72
  14	  73
  14	  79
  14	  80
  14	  82
  14	  87
  14	  88
  14	  91
  14	 100
  14	 108
  14	 114
  15	  18
  15	  21
  15	  23
  15	  36
  15	  37
  15	  41
  15	  48
  15	  53
  15	  55
  15	  59
  15	  60
  15	  62
  15	  63
  15	  67
  15	  74
  15	  80
  15	  82
  15	  83
  15	  86
  15	  90
  15	  91
  15	  92
  15	  96
  15	  98
  15	 101
  15	 105
  15	 106
  15	 108
  15	 110
  15	 111
  15	 112
  15	 118
  16	  17
  16	  19
  16	  21
  16	  27
  16	  31
  16	  37
  16	  45
  16	  55
  16	  56
  16	  57
  16	  59
  16	  60
  16	  63
  16	  69
  16	  77
  16	  80
  16	  81
  16	  84
  16	  85
  16	  86
  16	  87
  16	  88
  16	  92
  16	  95
  16	  96
  16	  97
  16	 102
  16	 105
  16	 107
  16	 109
  16	 111
  16	 112
  16	 113
  16	 116
  17	  18
  17	  19
  17	  28
  17	  31
  17	  32
  17	  34
  17	  35
  17	  47
  17	  48
  17	  49
  17	  50
  17	  55
  17	  63
  17	  66
  17	  68
  17	  74
  17	  76
  17	  78
  17	  82
  17	  84
  17	  86
  17	  87
  17	  91
  17	  92
  17	  95
  17	  96
  17	  98
  17	 102
  17	 104
  17	 105
  17	 106
  17	 107
  17	 109
  17	 111
  17	 114
  18	  19
  18	  20
  18	  21
  18	  25
  18	  28
  18	  29
  18	  32
  18	  47
  18	  55
  18	  57
  18	  59
  18	  60
  18	  62
  18	  63
  18	  72
  18	  75
  18	  79
  18	  80
  18	  84
  18	  86
  18	  91
  18	  92
  18	  94
  18	  96
  18	 101
  18	 107
  18	 114
  18	 117
  19	  22
  19	  31
  19	  40
  19	  41
  19	  44
  19	  47
  19	  48
  19	  49
  19	  51
  19	  52
  19	  63
  19	  65
  19	  76
  19	  81
  19	  85
  19	  87
  19	  95
  19	  96
  19	 104
  19	 106
  19	 108
  19	 110
  19	 111
  19	 117
  19	 118
  20	  22
  20	  23
  20	  28
  20	  30
  20	  31
  20	  33
  20	  34
  20	  35
  20	  37
  20	  38
  20	  48
  20	  51
  20	  53
  20	  56
  20	  59
  20	  60
  20	  64
  20	  67
  20	  72
  20	  76
  20	  79
  20	  81
  20	  82
  20	  88
  20	  95
  20	 101
  20	 106
  20	 107
  20	 110
  20	 111
  21	  22
  21	  27
  21	  39
  21	  42
  21	  43
  21	  46
  21	  47
  21	  48
  21	  52
  21	  53
  21	  61
  21	  66
  21	  67
  21	  72
  21	  77
  21	  83
  21	  89
  21	  92
  21	  94
  21	  96
  21	  97
  21	  98
  21	  99
  21	 101
  21	 104
  21	 105
  21	 107
  21	 114
  21	 119
  22	  27
  22	  35
  22	  37
  22	  43
  22	  52
  22	  54
  22	  58
  22	  59
  22	  61
  22	  62
  22	  68
  22	  69
  22	  73
  22	  76
  22	  78
  22	  80
  22	  88
  22	  89
  22	  92
  22	  97
  22	  98
  22	 100
  22	 103
  22	 107
  22	 108
  22	 112
  22	 115
  22	 119
  23	  29
  23	  32
  23	  34
  23	  35
  23	  38
  23	  41
  23	  49
  23	  51
  23	  56
  23	  61
  23	  62
  23	  67
  23	  77
  23	  83
  23	  90
  23	  93
  23	 100
  23	 111
  23	 113
  23	 114
  24	  27
  24	  30
  24	  32
  24	  33
  24	  35
  24	  40
  24	  41
  24	  45
  24	  48
  24	  49
  24	  50
  24	  53
  24	  54
  24	  61
  24	  62
  24	  66
  24	  68
  24	  72
  24	  74
  24	  78
  24	  81
  24	  83
  24	  85
  24	  93
  24	  94
  24	  96
  24	  97
  24	 103
  24	 111
  24	 119
  25	  27
  25	  31
  25	  32
  25	  33
  25	  35
  25	  40
  25	  41
  25	  42
  25	  56
  25	  57
  25	  60
  25	  67
  25	  68
  25	  69
  25	  75
  25	  84
  25	  90
  25	  92
  25	  95
  25	  96
  25	  97
  25	 100
  25	 105
  25	 106
  25	 109
  25	 113
  25	 114
  25	 116
  25	 118
  26	  28
  26	  30
  26	  33
  26	  34
  26	  37
  26	  40
  26	  46
  26	  54
  26	  55
  26	  56
  26	  57
  26	  59
  26	  64
  26	  65
  26	  66
  26	  67
  26	  69
  26	  71
  26	  73
  26	  99
  26	 100
  26	 101
  26	 110
  26	 111
  26	 115
  26	 119
  27	  34
  27	  37
  27	  38
  27	  39
  27	  43
  27	  45
  27	  47
  27	  53
  27	  54
  27	  57
  27	  63
  27	  64
  27	  67
  27	  68
  27	  69
  27	  77
  27	  78
  27	  79
  27	  80
  27	  84
  27	  85
  27	  92
  27	  95
  27	  96
  27	  98
  27	 102
  27	 104
  27	 105
  27	 109
  27	 116
  27	 117
  28	  29
  28	  31
  28	  35
  28	  40
  28	  49
  28	  53
  28	  60
  28	  63
  28	  66
  28	  74
  28	  75
  28	  76
  28	  80
  28	  88
  28	  91
  28	  92
  28	  94
  28	  97
  28	  98
  28	 101
  28	 107
  28	 114
  29	  32
  29	  34
  29	  36
  29	  37
  29	  38
  29	  39
  29	  50
  29	  52
  29	  53
  29	  57
  29	  62
  29	  63
  29	  68
  29	  70
  29	  72
  29	  76
  29	  77
  29	  84
  29	  85
  29	  86
  29	  89
  29	  95
  29	 104
  29	 107
  29	 108
  29	 110
  29	 112
  29	 113
  29	 117
  29	 118
  30	  31
  30	  33
  30	  35
  30	  41
  30	  42
  30	  46
  30	  48
  30	  50
  30	  52
  30	  54
  30	  55
  30	  65
  30	  66
  30	  74
  30	  75
  30	  76
  30	  80
  30	  85
  30	  88
  30	  89
  30	  90
  30	  92
  30	  94
  30	  95
  30	  98
  30	 100
  30	 102
  30	 103
  30	 104
  30	 111
  30	 116
  30	 117
  30	 119
  31	  33
  31	  35
  31	  41
  31	  44
  31	  45
  31	  48
  31	  55
  31	  60
  31	  71
  31	  74
  31	  75
  31	  77
  31	  78
  31	  81
  31	  83
  31	  85
  31	  87
  31	  88
  31	  93
  31	  99
  31	 101
  31	 104
  31	 117
  31	 119
  32	  35
  32	  36
  32	  39
  32	  48
  32	  61
  32	  62
  32	  66
  32	  67
  32	  75
  32	  80
  32	  84
  32	  86
  32	  87
  32	  88
  32	  91
  32	  96
  32	  97
  32	 100
  32	 104
  32	 105
  32	 107
  32	 111
  32	 113
  32	 117
  33	  34
  33	  36
  33	  42
  33	  44
  33	  47
  33	  49
  33	  55
  33	  60
  33	  63
  33	  67
  33	  69
  33	  70
  33	  74
  33	  78
  33	  81
  33	  84
  33	  86
  33	  95
  33	  96
  33	  98
  33	 101
  33	 104
  33	 113
  33	 117
  34	  38
  34	  45
  34	  47
  34	  48
  34	  52
  34	  55
  34	  56
  34	  59
  34	  64
  34	  65
  34	  66
  34	  67
  34	  68
  34	  71
  34	  72
  34	  73
  34	  75
  34	  76
  34	  86
  34	  87
  34	  90
  34	  92
  34	  98
  34	 101
  34	 103
  34	 108
  34	 111
  34	 112
  34	 114
  35	  37
  35	  42
  35	  45
  35	  46
  35	  47
  35	  49
  35	  51
  35	  53
  35	  56
  35	  64
  35	  65
  35	  71
  35	  72
  35	  78
  35	  79
  35	  84
  35	  85
  35	  88
  35	  89
  35	  90
  35	  91
  35	  94
  35	  95
  35	  97
  35	 103
  35	 104
  35	 110
  35	 111
  35	 116
  35	 119
  36	  37
  36	  40
  36	  43
  36	  48
  36	  52
  36	  56
  36	  59
  36	  60
  36	  61
  36	  63
  36	  67
  36	  69
  36	  70
  36	  74
  36	  78
  36	  82
  36	  85
  36	  91
  36	  92
  36	  94
  36	  97
  36	  98
  36	 101
  36	 106
  36	 107
  36	 108
  36	 109
  36	 111
  36	 115
  36	 116
  36	 118
  37	  42
  37	  43
  37	  45
  37	  48
  37	  50
  37	  52
  37	  54
  37	  56
  37	  59
  37	  60
  37	  61
  37	  63
  37	  65
  37	  68
  37	  70
  37	  76
  37	  79
  37	  87
  37	  92
  37	  94
  37	  97
  37	 105
  37	 109
  37	 111
  37	 112
  37	 113
  37	 115
  37	 119
  38	  43
  38	  48
  38	  55
  38	  58
  38	  59
  38	  60
  38	  65
  38	  66
  38	  68
  38	  74
  38	  77
  38	  78
  38	  84
  38	  87
  38	  89
  38	  94
  38	  96
  38	  98
  38	 100
  38	 101
  38	 117
  38	 118
  39	  40
  39	  41
  39	  42
  39	  48
  39	  49
  39	  51
  39	  53
  39	  56
  39	  61
  39	  66
  39	  72
  39	  74
  39	  79
  39	  80
  39	  82
  39	  84
  39	  92
  39	  95
  39	  96
  39	 100
  39	 101
  39	 106
  39	 109
  39	 111
  39	 116
  40	  42
  40	  45
  40	  50
  40	  51
  40	  52
  40	  59
  40	  61
  40	  63
  40	  65
  40	  66
  40	  71
  40	  72
  40	  75
  40	  77
  40	  85
  40	  88
  40	  89
  40	  92
  40	  93
  40	  94
  40	 102
  40	 104
  40	 108
  40	 109
  40	 111
  40	 113
  40	 115
  41	  43
  41	  54
  41	  55
  41	  60
  41	  62
  41	  66
  41	  70
  41	  75
  41	  79
  41	  84
  41	  86
  41	  87
  41	  89
  41	  91
  41	  92
  41	  99
  41	 107
  41	 108
  41	 111
  41	 115
  41	 119
  42	  44
  42	  47
  42	  49
  42	  52
  42	  55
  42	  59
  42	  61
  42	  65
  42	  68
  42	  78
  42	  83
  42	  84
  42	  85
  42	  96
  42	  97
  42	 106
  42	 107
  42	 109
  42	 110
  42	 113
  43	  44
  43	  45
  43	  54
  43	  55
  43	  56
  43	  58
  43	  59
  43	  60
  43	  66
  43	  71
  43	  73
  43	  74
  43	  75
  43	  79
  43	  80
  43	  83
  43	  84
  43	  86
  43	  87
  43	  89
  43	  94
  43	  98
  43	 102
  43	 105
  43	 107
  43	 110
  43	 111
  43	 112
  43	 113
  43	 115
  44	  46
  44	  47
  44	  48
  44	  49
  44	  50
  44	  51
  44	  52
  44	  56
  44	  59
  44	  61
  44	  74
  44	  75
  44	  79
  44	  80
  44	  84
  44	  88
  44	  89
  44	  95
  44	  97
  44	  98
  44	 100
  44	 104
  44	 112
  44	 113
  44	 115
  44	 118
  45	  46
  45	  49
  45	  54
  45	  55
  45	  57
  45	  58
  45	  60
  45	  62
  45	  63
  45	  64
  45	  67
  45	  70
  45	  77
  45	  80
  45	  95
  45	 100
  45	 108
  45	 110
  45	 115
  45	 118
  46	  47
  46	  59
  46	  60
  46	  64
  46	  69
  46	  75
  46	  76
  46	  77
  46	  83
  46	  91
  46	 101
  46	 107
  46	 109
  46	 113
  46	 114
  46	 115
  46	 119
  47	  49
  47	  50
  47	  51
  47	  56
  47	  60
  47	  61
  47	  62
  47	  63
  47	  68
  47	  70
  47	  73
  47	  74
  47	  75
  47	  76
  47	  77
  47	  78
  47	  82
  47	  89
  47	  90
  47	  91
  47	  96
  47	  99
  47	 102
  47	 104
  47	 116
  47	 118
  48	  53
  48	  60
  48	  65
  48	  69
  48	  70
  48	  75
  48	  78
  48	  81
  48	  82
  48	 104
  48	 110
  48	 113
  48	 115
  48	 117
  49	  55
  49	  57
  49	  63
  49	  69
  49	  73
  49	  74
  49	  75
  49	  79
  49	  88
  49	  91
  49	  92
  49	  93
  49	  94
  49	  95
  49	 100
  49	 102
  49	 105
  49	 113
  49	 114
  49	 116
  49	 117
  50	  54
  50	  63
  50	  70
  50	  72
  50	  75
  50	  77
  50	  86
  50	  90
  50	  91
  50	  94
  50	  97
  50	 100
  50	 103
  50	 104
  50	 106
  50	 107
  50	 110
  50	 113
  50	 115
  50	 117
  51	  55
  51	  59
  51	  60
  51	  73
  51	  76
  51	  85
  51	  88
  51	  89
  51	  91
  51	  97
  51	 108
  51	 112
  51	 113
  51	 114
  51	 117
  51	 118
  51	 119
  52	  56
  52	  58
  52	  59
  52	  62
  52	  63
  52	  69
  52	  74
  52	  76
  52	  85
  52	  87
  52	  88
  52	  89
  52	  90
  52	  91
  52	  99
  52	 111
  52	 117
  53	  54
  53	  56
  53	  60
  53	  61
  53	  63
  53	  70
  53	  72
  53	  76
  53	  81
  53	  82
  53	  83
  53	  92
  53	 100
  53	 106
  53	 108
  53	 112
  53	 116
  54	  60
  54	  65
  54	  67
  54	  68
  54	  73
  54	  74
  54	  79
  54	  91
  54	  94
  54	  98
  54	 102
  54	 103
  54	 104
  54	 110
  54	 111
  54	 115
  55	  56
  55	  58
  55	  59
  55	  68
  55	  75
  55	  76
  55	  78
  55	  80
  55	  81
  55	  83
  55	  84
  55	  85
  55	  89
  55	  90
  55	  94
  55	  96
  55	  97
  55	 102
  55	 105
  55	 111
  55	 112
  55	 113
  55	 118
  55	 119
  56	  61
  56	  62
  56	  63
  56	  64
  56	  65
  56	  69
  56	  71
  56	  74
  56	  75
  56	  77
  56	  81
  56	  83
  56	  88
  56	  90
  56	  94
  56	  95
  56	  97
  56	 110
  56	 112
  56	 113
  56	 115
  57	  59
  57	  65
  57	  75
  57	  78
  57	  85
  57	  86
  57	  87
  57	  89
  57	  90
  57	  98
  57	 108
  57	 111
  57	 112
  57	 113
  57	 119
  58	  59
  58	  60
  58	  61
  58	  67
  58	  68
  58	  69
  58	  74
  58	  84
  58	  85
  58	  86
  58	  87
  58	  88
  58	  90
  58	  93
  58	  94
  58	  96
  58	 102
  58	 103
  58	 106
  58	 107
  58	 109
  58	 112
  58	 116
  59	  60
  59	  62
  59	  67
  59	  70
  59	  73
  59	  77
  59	  78
  59	  80
  59	  82
  59	  86
  59	  88
  59	  93
  59	 103
  59	 104
  59	 106
  59	 108
  59	 110
  59	 117
  59	 119
  60	  75
  60	  76
  60	  78
  60	  85
  60	  88
  60	  93
  60	  95
  60	  96
  60	  97
  60	  99
  60	 100
  60	 102
  60	 116
  60	 119
  61	  75
  61	  78
  61	  82
  61	  84
  61	  87
  61	  94
  61	  95
  61	  96
  61	 102
  61	 104
  61	 106
  61	 107
  61	 108
  61	 109
  61	 111
  61	 112
  61	 113
  61	 115
  61	 119
  62	  65
  62	  71
  62	  73
  62	  74
  62	  80
  62	  83
  62	  87
  62	  92
  62	  94
  62	 103
  62	 108
  62	 111
  62	 112
  62	 115
  63	  64
  63	  65
  63	  71
  63	  74
  63	  76
  63	  78
  63	  79
  63	  81
  63	  87
  63	  88
  63	  89
  63	  90
  63	  93
  63	  99
  63	 103
  63	 105
  63	 106
  63	 110
  63	 112
  63	 113
  63	 114
  63	 115
  63	 116
  64	  66
  64	  78
  64	  79
  64	  80
  64	  81
  64	  83
  64	  84
  64	  86
  64	  94
  64	  95
  64	  96
  64	  97
  64	  99
  64	 103
  64	 104
  64	 110
  64	 111
  64	 116
  64	 118
  64	 119
  65	  66
  65	  67
  65	  68
  65	  71
  65	  79
  65	  84
  65	  98
  65	 101
  65	 104
  65	 105
  65	 108
  65	 109
  65	 116
  66	  70
  66	  72
  66	  74
  66	  77
  66	  78
  66	  83
  66	  84
  66	  85
  66	  88
  66	  93
  66	  94
  66	  96
  66	 100
  66	 101
  66	 103
  66	 107
  66	 108
  66	 109
  66	 110
  66	 113
  66	 115
  67	  68
  67	  69
  67	  75
  67	  78
  67	  82
  67	  84
  67	  89
  67	  97
  67	  98
  67	 101
  67	 102
  67	 103
  67	 104
  67	 106
  67	 107
  67	 114
  67	 117
  67	 118
  68	  73
  68	  75
  68	  79
  68	  86
  68	  89
  68	  93
  68	 102
  68	 103
  68	 104
  68	 109
  68	 110
  68	 114
  68	 116
  68	 118
  69	  71
  69	  73
  69	  79
  69	  85
  69	  87
  69	  88
  69	  92
  69	 100
  69	 105
  69	 106
  69	 119
  70	  72
  70	  77
  70	  80
  70	  90
  70	  92
  70	  95
  70	  98
  70	 104
  70	 105
  70	 108
  70	 111
  70	 115
  70	 117
  70	 119
  71	  72
  71	  75
  71	  77
  71	  79
  71	  89
  71	  91
  71	 100
  71	 101
  71	 103
  71	 105
  71	 111
  71	 113
  71	 114
  71	 115
  71	 118
  72	  76
  72	  83
  72	  92
  72	  94
  72	 107
  72	 108
  72	 109
  72	 110
  72	 115
  72	 119
  73	  74
  73	  80
  73	  81
  73	  82
  73	  83
  73	  84
  73	  92
  73	  94
  73	  97
  73	 100
  73	 102
  73	 106
  73	 109
  73	 110
  73	 112
  73	 118
  74	  76
  74	  89
  74	  94
  74	  98
  74	 101
  74	 108
  74	 117
  75	  76
  75	  78
  75	  81
  75	  87
  75	  88
  75	  90
  75	  93
  75	  96
  75	  97
  75	 104
  75	 109
  75	 110
  75	 111
  75	 116
  75	 117
  76	  77
  76	  82
  76	  86
  76	  89
  76	  92
  76	  95
  76	 101
  76	 102
  76	 106
  76	 107
  76	 110
  76	 112
  76	 114
  76	 115
  76	 119
  77	  79
  77	  84
  77	  85
  77	  86
  77	  87
  77	  88
  77	  89
  77	  92
  77	  98
  77	  99
  77	 100
  77	 104
  77	 108
  77	 110
  77	 111
  77	 114
  77	 115
  78	  79
  78	  80
  78	  81
  78	  83
  78	  87
  78	  93
  78	  96
  78	  99
  78	 104
  78	 109
  78	 110
  78	 111
  78	 114
  78	 115
  78	 117
  78	 118
  79	  82
  79	  83
  79	  88
  79	  91
  79	  94
  79	 101
  79	 103
  79	 104
  79	 105
  79	 107
  79	 119
  80	  83
  80	  84
  80	  87
  80	  88
  80	  90
  80	  91
  80	  97
  80	  98
  80	 100
  80	 102
  80	 109
  80	 119
  81	  86
  81	  88
  81	  98
  81	 100
  81	 103
  81	 104
  81	 105
  81	 106
  81	 111
  81	 116
  82	  86
  82	  87
  82	  88
  82	  89
  82	  98
  82	  99
  82	 100
  82	 113
  82	 114
  83	  85
  83	  87
  83	  93
  83	  94
  83	  97
  83	 101
  83	 103
  83	 105
  83	 106
  83	 107
  83	 113
  83	 114
  83	 115
  83	 116
  83	 119
  84	  85
  84	  88
  84	  89
  84	  91
  84	  95
  84	  96
  84	  98
  84	 103
  84	 115
  84	 116
  84	 117
  84	 119
  85	  88
  85	  91
  85	  92
  85	  96
  85	  98
  85	 100
  85	 101
  85	 103
  85	 105
  85	 110
  85	 111
  85	 115
  86	  93
  86	  96
  86	 100
  86	 105
  86	 114
  86	 119
  87	  89
  87	  96
  87	 100
  87	 102
  87	 106
  87	 110
  87	 112
  87	 113
  87	 115
  87	 117
  87	 118
  88	  92
  88	  93
  88	  98
  88	 102
  88	 107
  88	 109
  88	 110
  88	 111
  88	 115
  89	  92
  89	  95
  89	  99
  89	 103
  89	 104
  89	 106
  89	 111
  89	 112
  90	  92
  90	  99
  90	 107
  90	 114
  90	 115
  91	  92
  91	  95
  91	  97
  91	 100
  91	 101
  91	 104
  91	 105
  91	 106
  91	 108
  91	 114
  91	 117
  92	 101
  92	 102
  92	 108
  92	 109
  92	 113
  92	 117
  92	 118
  93	  97
  93	 100
  93	 102
  93	 114
  93	 116
  93	 119
  94	  95
  94	  97
  94	 104
  94	 106
  94	 111
  95	  96
  95	  97
  95	  98
  95	  99
  95	 102
  95	 105
  95	 110
  95	 112
  96	  97
  96	  99
  96	 106
  96	 110
  96	 111
  96	 112
  96	 116
  96	 118
  96	 119
  97	 101
  97	 102
  97	 103
  97	 107
  97	 113
  97	 115
  97	 116
  97	 117
  98	  99
  98	 103
  98	 104
  98	 112
  98	 113
  99	 100
  99	 101
  99	 103
  99	 105
  99	 108
  99	 109
  99	 110
  99	 119
 100	 103
 100	 105
 100	 106
 100	 111
 100	 112
 100	 113
 100	 115
 100	 117
 101	 104
 101	 110
 101	 112
 101	 114
 101	 115
 101	 116
 101	 117
 102	 108
 102	 114
 103	 104
 103	 107
 103	 108
 103	 110
 103	 112
 103	 113
 103	 114
 103	 116
 103	 118
 103	 119
 104	 107
 104	 108
 104	 111
 104	 117
 105	 114
 105	 115
 105	 116
 106	 108
 106	 109
 106	 114
 106	 115
 106	 116
 106	 117
 106	 118
 106	 119
 107	 109
 107	 111
 107	 112
 107	 115
 107	 117
 107	 118
 108	 110
 108	 113
 108	 114
 108	 115
 109	 112
 109	 113
 109	 114
 110	 111
 110	 115
 111	 113
 112	 115
 113	 119
 114	 116
 114	 119
 115	 116
 115	 117
 115	 119
 117	 119
;
